c [ 1 2 3 4 5 6 7 8 9 10 ]
c r=8.000 p0=0.080
p cnf 10 80
-10 5 -4 0
9 -5 4 0
2 4 -1 0
-5 2 1 0
9 7 -3 0
-8 1 3 0
-6 3 9 0
-1 4 -10 0
2 8 6 0
-8 4 -10 0
10 -6 9 0
3 6 1 0
7 -10 -9 0
-2 -7 8 0
-10 -1 7 0
-7 1 -8 0
1 -3 -6 0
-7 -10 2 0
-3 10 -8 0
-7 -9 2 0
2 10 8 0
9 5 8 0
6 10 -2 0
6 -10 7 0
8 3 -10 0
2 -4 -5 0
-2 4 -1 0
8 -3 6 0
-4 8 -1 0
-6 4 -7 0
-1 6 8 0
-3 -2 9 0
7 2 -5 0
-8 -6 10 0
1 -5 -7 0
-10 2 -7 0
-9 -5 1 0
-5 10 -8 0
8 -1 -3 0
5 7 10 0
-10 8 -5 0
4 -10 -3 0
5 -10 2 0
8 7 -3 0
2 -6 -4 0
3 4 9 0
5 8 -7 0
8 -9 7 0
-9 -6 1 0
3 1 9 0
8 5 -6 0
10 -8 -5 0
-6 3 -10 0
-1 4 10 0
-9 10 -2 0
9 7 -4 0
-2 -10 9 0
-2 -9 6 0
1 -4 -8 0
4 6 -5 0
-6 9 10 0
7 6 9 0
-3 -4 2 0
-9 6 10 0
-5 1 6 0
5 8 -4 0
1 5 10 0
-4 10 2 0
3 -7 2 0
1 -5 -6 0
-1 -9 8 0
-1 -5 10 0
-4 6 10 0
-1 -9 2 0
2 -5 -6 0
3 -2 -7 0
5 -8 -7 0
-9 -4 3 0
9 -1 -2 0
8 -4 -6 0
